# Generated by ConicBenchmarkUtilities.jl
VER
2

OBJSENSE
MIN

VAR
207 1
F 207

INT
40
18
19
20
21
22
23
24
25
26
27
28
29
30
31
32
33
34
35
36
37
70
74
82
86
101
102
104
108
129
130
132
136
144
148
156
160
175
176
185
186

CON
561 537
L= 1
L= 1
L= 1
L= 1
L= 1
L= 1
L= 1
L= 1
L= 1
L= 1
L= 1
L= 1
L= 1
EXP 3
L+ 1
L+ 1
EXP 3
L+ 1
L+ 1
L= 1
L= 1
L= 1
L= 1
L= 1
L= 1
L= 1
L= 1
L+ 1
L+ 1
L+ 1
L+ 1
L+ 1
L+ 1
L+ 1
L+ 1
EXP 3
L+ 1
L+ 1
EXP 3
L+ 1
L+ 1
L= 1
L= 1
L= 1
L= 1
L= 1
L= 1
L= 1
L= 1
L+ 1
L+ 1
L+ 1
L+ 1
L+ 1
L+ 1
L+ 1
L+ 1
L= 1
L= 1
L= 1
L= 1
L= 1
L= 1
L= 1
L= 1
L= 1
L= 1
L+ 1
L+ 1
L+ 1
L+ 1
L+ 1
L+ 1
L+ 1
L+ 1
EXP 3
L+ 1
L+ 1
EXP 3
L+ 1
L+ 1
L= 1
L= 1
L= 1
L= 1
L= 1
L= 1
L= 1
L= 1
L+ 1
L+ 1
L+ 1
L+ 1
L+ 1
L+ 1
L+ 1
L+ 1
L= 1
L= 1
L= 1
L= 1
L= 1
L= 1
L= 1
L= 1
L= 1
L= 1
L= 1
L= 1
L= 1
L= 1
L= 1
L= 1
L+ 1
L+ 1
L+ 1
L+ 1
L+ 1
L+ 1
L+ 1
L+ 1
L+ 1
L+ 1
L+ 1
L+ 1
EXP 3
L+ 1
L+ 1
EXP 3
L+ 1
L+ 1
L= 1
L= 1
L= 1
L= 1
L= 1
L= 1
L= 1
L= 1
L+ 1
L+ 1
L+ 1
L+ 1
L+ 1
L+ 1
L+ 1
L+ 1
EXP 3
L+ 1
L+ 1
EXP 3
L+ 1
L+ 1
L= 1
L= 1
L= 1
L= 1
L= 1
L= 1
L= 1
L= 1
L+ 1
L+ 1
L+ 1
L+ 1
L+ 1
L+ 1
L+ 1
L+ 1
EXP 3
L+ 1
L+ 1
EXP 3
L+ 1
L+ 1
L= 1
L= 1
L= 1
L= 1
L= 1
L= 1
L= 1
L= 1
L+ 1
L+ 1
L+ 1
L+ 1
L+ 1
L+ 1
L+ 1
L+ 1
L= 1
L= 1
L= 1
L= 1
L= 1
L= 1
L= 1
L= 1
L= 1
L= 1
L+ 1
L+ 1
L+ 1
L+ 1
L+ 1
L+ 1
L+ 1
L+ 1
L= 1
L= 1
L= 1
L= 1
L= 1
L= 1
L= 1
L= 1
L= 1
L= 1
L+ 1
L+ 1
L+ 1
L+ 1
L+ 1
L+ 1
L+ 1
L+ 1
L= 1
L= 1
L= 1
L= 1
L= 1
L= 1
L= 1
L= 1
L= 1
L= 1
L= 1
L= 1
L= 1
L= 1
L= 1
L= 1
L= 1
L= 1
L= 1
L= 1
L+ 1
L+ 1
L+ 1
L+ 1
L+ 1
L+ 1
L+ 1
L+ 1
L+ 1
L+ 1
L+ 1
L+ 1
L+ 1
L+ 1
L+ 1
L+ 1
L+ 1
L+ 1
L+ 1
L+ 1
L+ 1
L+ 1
L+ 1
L+ 1
L+ 1
L+ 1
L+ 1
L+ 1
L+ 1
L+ 1
L+ 1
L+ 1
L+ 1
L+ 1
L+ 1
L+ 1
L+ 1
L+ 1
L+ 1
L+ 1
L+ 1
L+ 1
L+ 1
L+ 1
L+ 1
L+ 1
L+ 1
L+ 1
L+ 1
L+ 1
L= 1
L= 1
L+ 1
L+ 1
L+ 1
L+ 1
L+ 1
L+ 1
L+ 1
L+ 1
L+ 1
L+ 1
L+ 1
L+ 1
L+ 1
L+ 1
L+ 1
L+ 1
L+ 1
L+ 1
L+ 1
L+ 1
L+ 1
L+ 1
L+ 1
L+ 1
L+ 1
L+ 1
L+ 1
L+ 1
L+ 1
L+ 1
L+ 1
L+ 1
L+ 1
L+ 1
L+ 1
L+ 1
L+ 1
L+ 1
L+ 1
L+ 1
L+ 1
L+ 1
L+ 1
L+ 1
L+ 1
L+ 1
L+ 1
L+ 1
L+ 1
L+ 1
L+ 1
L+ 1
L+ 1
L+ 1
L+ 1
L+ 1
L+ 1
L+ 1
L+ 1
L+ 1
L+ 1
L+ 1
L+ 1
L+ 1
L+ 1
L+ 1
L+ 1
L+ 1
L+ 1
L+ 1
L+ 1
L+ 1
L+ 1
L+ 1
L+ 1
L+ 1
L+ 1
L+ 1
L+ 1
L+ 1
L+ 1
L+ 1
L+ 1
L+ 1
L+ 1
L+ 1
L+ 1
L+ 1
L+ 1
L+ 1
L+ 1
L+ 1
L+ 1
L+ 1
L+ 1
L+ 1
L+ 1
L+ 1
L+ 1
L+ 1
L+ 1
L+ 1
L+ 1
L+ 1
L+ 1
L+ 1
L+ 1
L+ 1
L+ 1
L+ 1
L+ 1
L+ 1
L+ 1
L+ 1
L+ 1
L+ 1
L+ 1
L+ 1
L+ 1
L+ 1
L+ 1
L+ 1
L+ 1
L+ 1
L+ 1
L+ 1
L+ 1
L+ 1
L+ 1
L+ 1
L+ 1
L+ 1
L+ 1
L+ 1
L+ 1
L+ 1
L+ 1
L+ 1
L+ 1
L+ 1
L+ 1
L+ 1
L+ 1
L+ 1
L+ 1
L+ 1
L+ 1
L+ 1
L+ 1
L+ 1
L+ 1
L+ 1
L+ 1
L+ 1
L+ 1
L+ 1
L+ 1
L+ 1
L+ 1
L+ 1
L+ 1
L+ 1
L+ 1
L+ 1
L+ 1
L+ 1
L+ 1
L+ 1
L+ 1
L+ 1
L+ 1
L+ 1
L+ 1
L+ 1
L+ 1
L+ 1
L+ 1
L+ 1
L+ 1
L+ 1
L+ 1
L+ 1
L+ 1
L+ 1
L+ 1
L+ 1
L+ 1
L+ 1
L+ 1
L+ 1
L+ 1
L+ 1
L+ 1
L+ 1
L+ 1
L+ 1
L+ 1
L+ 1
L+ 1
L+ 1
L+ 1
L+ 1
L+ 1
L+ 1
L+ 1
L+ 1
L+ 1
L+ 1
L+ 1
L+ 1
L+ 1
L+ 1
L+ 1
L+ 1
L+ 1
L+ 1
L+ 1
L+ 1
L+ 1
L+ 1
L+ 1
L+ 1
L+ 1
L+ 1
L+ 1
L+ 1
L+ 1
L+ 1
L+ 1
L+ 1
L+ 1
L+ 1
L+ 1
L+ 1
L+ 1
L+ 1
L+ 1
L+ 1

OBJACOORD
1
38 -1.0

ACOORD
951
0 0 -1.0
1 0 1.0
343 0 1.0
344 0 -1.0
0 1 -1.0
2 1 1.0
345 1 1.0
346 1 -1.0
0 2 5.0
5 2 -1.0
357 2 1.0
0 3 10.0
6 3 -1.0
358 3 1.0
0 4 -2.0
121 4 1.0
367 4 1.0
368 4 -1.0
0 5 -1.0
122 5 1.0
369 5 1.0
370 5 -1.0
0 6 80.0
11 6 -1.0
385 6 1.0
0 7 90.0
12 7 -1.0
386 7 1.0
0 8 285.0
153 8 1.0
387 8 1.0
0 9 390.0
154 9 1.0
388 9 1.0
0 10 290.0
179 10 1.0
389 10 1.0
0 11 405.0
180 11 1.0
390 11 1.0
0 12 280.0
205 12 1.0
391 12 1.0
0 13 400.0
206 13 1.0
392 13 1.0
0 14 290.0
223 14 1.0
393 14 1.0
0 15 300.0
224 15 1.0
394 15 1.0
0 16 350.0
241 16 1.0
395 16 1.0
0 17 250.0
242 17 1.0
396 17 1.0
0 18 -5.0
251 18 5.0
281 18 -1.0
282 18 -1.0
301 18 1.0
521 18 1.0
522 18 -1.0
0 19 -4.0
252 19 4.0
281 19 -1.0
282 19 -1.0
302 19 1.0
523 19 1.0
524 19 -1.0
0 20 -8.0
253 20 8.0
283 20 -1.0
284 20 -1.0
303 20 1.0
525 20 1.0
526 20 -1.0
0 21 -7.0
254 21 7.0
283 21 -1.0
284 21 -1.0
304 21 1.0
527 21 1.0
528 21 -1.0
0 22 -6.0
255 22 6.0
285 22 -1.0
286 22 -1.0
305 22 1.0
529 22 1.0
530 22 -1.0
0 23 -9.0
256 23 9.0
285 23 -1.0
286 23 -1.0
306 23 1.0
531 23 1.0
532 23 -1.0
0 24 -10.0
257 24 10.0
287 24 -1.0
288 24 -1.0
307 24 1.0
533 24 1.0
534 24 -1.0
0 25 -9.0
258 25 9.0
287 25 -1.0
288 25 -1.0
308 25 1.0
535 25 1.0
536 25 -1.0
0 26 -6.0
259 26 6.0
289 26 -1.0
290 26 -1.0
309 26 1.0
537 26 1.0
538 26 -1.0
0 27 -10.0
260 27 10.0
289 27 -1.0
290 27 -1.0
310 27 1.0
539 27 1.0
540 27 -1.0
0 28 -7.0
261 28 7.0
291 28 -1.0
292 28 -1.0
311 28 1.0
541 28 1.0
542 28 -1.0
0 29 -7.0
262 29 7.0
291 29 -1.0
292 29 -1.0
312 29 1.0
543 29 1.0
544 29 -1.0
0 30 -4.0
263 30 4.0
293 30 -1.0
294 30 -1.0
313 30 1.0
545 30 1.0
546 30 -1.0
0 31 -3.0
264 31 3.0
293 31 -1.0
294 31 -1.0
314 31 1.0
547 31 1.0
548 31 -1.0
0 32 -5.0
265 32 5.0
295 32 -1.0
296 32 -1.0
315 32 1.0
549 32 1.0
550 32 -1.0
0 33 -6.0
266 33 6.0
295 33 -1.0
296 33 -1.0
316 33 1.0
551 33 1.0
552 33 -1.0
0 34 -2.0
267 34 2.0
297 34 -1.0
298 34 -1.0
317 34 1.0
553 34 1.0
554 34 -1.0
0 35 -5.0
268 35 5.0
297 35 -1.0
298 35 -1.0
318 35 1.0
555 35 1.0
556 35 -1.0
0 36 -4.0
269 36 4.0
299 36 -1.0
300 36 -1.0
319 36 1.0
557 36 1.0
558 36 -1.0
0 37 -7.0
270 37 7.0
299 37 -1.0
300 37 -1.0
320 37 1.0
559 37 1.0
560 37 -1.0
0 38 -1.0
1 39 -1.0
27 39 1.0
347 39 1.0
1 40 -1.0
53 40 1.0
349 40 1.0
2 41 -1.0
28 41 1.0
348 41 1.0
2 42 -1.0
54 42 1.0
350 42 1.0
3 43 -1.0
29 43 1.0
351 43 1.0
3 44 -1.0
55 44 1.0
353 44 1.0
3 45 1.0
5 45 1.0
355 45 1.0
4 46 -1.0
30 46 1.0
352 46 1.0
4 47 -1.0
56 47 1.0
354 47 1.0
4 48 1.0
6 48 1.0
356 48 1.0
5 49 -1.0
7 49 1.0
359 49 1.0
6 50 -1.0
8 50 1.0
360 50 1.0
7 51 -1.0
71 51 1.0
361 51 1.0
7 52 -1.0
97 52 1.0
363 52 1.0
7 53 -1.0
119 53 1.0
365 53 1.0
8 54 -1.0
72 54 1.0
362 54 1.0
8 55 -1.0
98 55 1.0
364 55 1.0
8 56 -1.0
120 56 1.0
366 56 1.0
9 57 1.0
73 57 1.0
371 57 1.0
9 58 -1.0
151 58 1.0
377 58 1.0
9 59 -1.0
177 59 1.0
379 59 1.0
10 60 1.0
74 60 1.0
372 60 1.0
10 61 -1.0
152 61 1.0
378 61 1.0
10 62 -1.0
178 62 1.0
380 62 1.0
11 63 1.0
123 63 1.0
375 63 1.0
11 64 -1.0
221 64 1.0
381 64 1.0
11 65 -1.0
239 65 1.0
383 65 1.0
12 66 1.0
124 66 1.0
376 66 1.0
12 67 -1.0
222 67 1.0
382 67 1.0
12 68 -1.0
240 68 1.0
384 68 1.0
15 69 -1.0
17 69 -1.0
13 70 1.0
14 70 1.0
16 70 1.0
31 70 40.0
33 70 -40.0
35 70 3.71357206670431
37 70 -3.71357206670431
271 70 -1.0
301 70 -1.0
302 70 1.0
321 70 1.0
327 70 1.0
329 70 1.0
331 70 1.0
481 70 1.0
482 70 -1.0
13 71 1.0
16 71 1.0
27 71 -1.0
31 71 -1.0
397 71 1.0
17 72 -1.0
29 72 -1.0
35 72 -1.0
405 72 1.0
20 73 -1.0
22 73 -1.0
18 74 1.0
19 74 1.0
21 74 1.0
32 74 40.0
34 74 -40.0
36 74 3.71357206670431
38 74 -3.71357206670431
271 74 1.0
302 74 -1.0
322 74 1.0
328 74 1.0
330 74 1.0
332 74 1.0
483 74 1.0
484 74 -1.0
18 75 1.0
21 75 1.0
28 75 -1.0
32 75 -1.0
398 75 1.0
22 76 -1.0
30 76 -1.0
36 76 -1.0
406 76 1.0
23 77 1.0
27 77 -1.0
33 77 -1.0
399 77 1.0
24 78 1.0
28 78 -1.0
34 78 -1.0
400 78 1.0
25 79 1.0
29 79 -1.0
37 79 -1.0
407 79 1.0
26 80 1.0
30 80 -1.0
38 80 -1.0
408 80 1.0
41 81 -1.0
43 81 -1.2
39 82 1.0
40 82 1.0
42 82 1.0
57 82 40.0
59 82 -40.0
61 82 4.45628648004517
63 82 -4.45628648004517
272 82 -1.0
303 82 -1.0
304 82 1.0
321 82 1.0
327 82 1.0
329 82 1.0
331 82 1.0
485 82 1.0
486 82 -1.0
39 83 1.0
42 83 1.0
53 83 -1.0
57 83 -1.0
401 83 1.0
43 84 -1.0
55 84 -1.0
61 84 -1.0
409 84 1.0
46 85 -1.0
48 85 -1.2
44 86 1.0
45 86 1.0
47 86 1.0
58 86 40.0
60 86 -40.0
62 86 4.45628648004517
64 86 -4.45628648004517
272 86 1.0
304 86 -1.0
322 86 1.0
328 86 1.0
330 86 1.0
332 86 1.0
487 86 1.0
488 86 -1.0
44 87 1.0
47 87 1.0
54 87 -1.0
58 87 -1.0
402 87 1.0
48 88 -1.0
56 88 -1.0
62 88 -1.0
410 88 1.0
49 89 1.0
53 89 -1.0
59 89 -1.0
403 89 1.0
50 90 1.0
54 90 -1.0
60 90 -1.0
404 90 1.0
51 91 1.0
55 91 -1.0
63 91 -1.0
411 91 1.0
52 92 1.0
56 92 -1.0
64 92 -1.0
412 92 1.0
65 93 -0.75
71 93 -1.0
75 93 -1.0
413 93 1.0
65 94 1.0
73 94 -1.0
79 94 -1.0
429 94 1.0
66 95 -0.75
72 95 -1.0
76 95 -1.0
414 95 1.0
66 96 1.0
74 96 -1.0
80 96 -1.0
430 96 1.0
67 97 1.0
71 97 -1.0
77 97 -1.0
415 97 1.0
68 98 1.0
72 98 -1.0
78 98 -1.0
416 98 1.0
69 99 1.0
73 99 -1.0
81 99 -1.0
431 99 1.0
70 100 1.0
74 100 -1.0
82 100 -1.0
432 100 1.0
75 101 4.45628648004517
77 101 -4.45628648004517
79 101 3.34221486003388
81 101 -3.34221486003388
273 101 -1.0
305 101 -1.0
306 101 1.0
323 101 -1.0
327 101 -1.0
333 101 1.0
335 101 1.0
489 101 1.0
490 101 -1.0
76 102 4.45628648004517
78 102 -4.45628648004517
80 102 3.34221486003388
82 102 -3.34221486003388
273 102 1.0
306 102 -1.0
324 102 -1.0
328 102 -1.0
334 102 1.0
336 102 1.0
491 102 1.0
492 102 -1.0
85 103 -1.0
87 103 -1.5
83 104 1.0
84 104 1.0
86 104 1.0
101 104 4.45628648004517
103 104 -4.45628648004517
105 104 2.54515263975353
107 104 -2.54515263975353
274 104 -1.0
307 104 -1.0
308 104 1.0
325 104 -1.0
329 104 -1.0
337 104 1.0
493 104 1.0
494 104 -1.0
83 105 1.0
86 105 1.0
97 105 -1.0
101 105 -1.0
417 105 1.0
87 106 -1.0
99 106 -1.0
105 106 -1.0
433 106 1.0
90 107 -1.0
92 107 -1.5
88 108 1.0
89 108 1.0
91 108 1.0
102 108 4.45628648004517
104 108 -4.45628648004517
106 108 2.54515263975353
108 108 -2.54515263975353
274 108 1.0
308 108 -1.0
326 108 -1.0
330 108 -1.0
338 108 1.0
495 108 1.0
496 108 -1.0
88 109 1.0
91 109 1.0
98 109 -1.0
102 109 -1.0
418 109 1.0
92 110 -1.0
100 110 -1.0
106 110 -1.0
434 110 1.0
93 111 1.0
97 111 -1.0
103 111 -1.0
419 111 1.0
94 112 1.0
98 112 -1.0
104 112 -1.0
420 112 1.0
95 113 1.0
99 113 -1.0
107 113 -1.0
437 113 1.0
96 114 1.0
100 114 -1.0
108 114 -1.0
438 114 1.0
99 115 1.0
203 115 1.0
373 115 1.0
100 116 1.0
204 116 1.0
374 116 1.0
109 117 -1.0
119 117 -1.0
125 117 -1.0
421 117 1.0
109 118 1.0
111 118 1.0
123 118 -1.0
133 118 -1.0
441 118 1.0
110 119 -1.0
120 119 -1.0
126 119 -1.0
422 119 1.0
110 120 1.0
112 120 1.0
124 120 -1.0
134 120 -1.0
442 120 1.0
111 121 -0.5
121 121 -1.0
129 121 -1.0
425 121 1.0
112 122 -0.5
122 122 -1.0
130 122 -1.0
426 122 1.0
113 123 1.0
119 123 -1.0
127 123 -1.0
423 123 1.0
114 124 1.0
120 124 -1.0
128 124 -1.0
424 124 1.0
115 125 1.0
121 125 -1.0
131 125 -1.0
427 125 1.0
116 126 1.0
122 126 -1.0
132 126 -1.0
428 126 1.0
117 127 1.0
123 127 -1.0
135 127 -1.0
443 127 1.0
118 128 1.0
124 128 -1.0
136 128 -1.0
444 128 1.0
125 129 4.45628648004517
127 129 -4.45628648004517
129 129 30.0
131 129 -30.0
133 129 15.0
135 129 -15.0
275 129 -1.0
309 129 -1.0
310 129 1.0
331 129 -1.0
339 129 1.0
341 129 1.0
497 129 1.0
498 129 -1.0
126 130 4.45628648004517
128 130 -4.45628648004517
130 130 30.0
132 130 -30.0
134 130 15.0
136 130 -15.0
275 130 1.0
310 130 -1.0
332 130 -1.0
340 130 1.0
342 130 1.0
499 130 1.0
500 130 -1.0
139 131 -1.0
141 131 -1.25
137 132 1.0
138 132 1.0
140 132 1.0
155 132 3.34221486003388
157 132 -3.34221486003388
159 132 1.83548069293539
161 132 -1.83548069293539
276 132 -1.0
311 132 -1.0
312 132 1.0
323 132 1.0
333 132 -1.0
501 132 1.0
502 132 -1.0
137 133 1.0
140 133 1.0
151 133 -1.0
155 133 -1.0
445 133 1.0
141 134 -1.0
153 134 -1.0
159 134 -1.0
461 134 1.0
144 135 -1.0
146 135 -1.25
142 136 1.0
143 136 1.0
145 136 1.0
156 136 3.34221486003388
158 136 -3.34221486003388
160 136 1.83548069293539
162 136 -1.83548069293539
276 136 1.0
312 136 -1.0
324 136 1.0
334 136 -1.0
503 136 1.0
504 136 -1.0
142 137 1.0
145 137 1.0
152 137 -1.0
156 137 -1.0
446 137 1.0
146 138 -1.0
154 138 -1.0
160 138 -1.0
462 138 1.0
147 139 1.0
151 139 -1.0
157 139 -1.0
447 139 1.0
148 140 1.0
152 140 -1.0
158 140 -1.0
448 140 1.0
149 141 1.0
153 141 -1.0
161 141 -1.0
463 141 1.0
150 142 1.0
154 142 -1.0
162 142 -1.0
464 142 1.0
165 143 -1.0
167 143 -0.9
163 144 1.0
164 144 1.0
166 144 1.0
181 144 3.34221486003388
183 144 -3.34221486003388
185 144 1.32154609891348
187 144 -1.32154609891348
277 144 -1.0
313 144 -1.0
314 144 1.0
323 144 1.0
335 144 -1.0
505 144 1.0
506 144 -1.0
163 145 1.0
166 145 1.0
177 145 -1.0
181 145 -1.0
449 145 1.0
167 146 -1.0
179 146 -1.0
185 146 -1.0
465 146 1.0
170 147 -1.0
172 147 -0.9
168 148 1.0
169 148 1.0
171 148 1.0
182 148 3.34221486003388
184 148 -3.34221486003388
186 148 1.32154609891348
188 148 -1.32154609891348
277 148 1.0
314 148 -1.0
324 148 1.0
336 148 -1.0
507 148 1.0
508 148 -1.0
168 149 1.0
171 149 1.0
178 149 -1.0
182 149 -1.0
450 149 1.0
172 150 -1.0
180 150 -1.0
186 150 -1.0
466 150 1.0
173 151 1.0
177 151 -1.0
183 151 -1.0
451 151 1.0
174 152 1.0
178 152 -1.0
184 152 -1.0
452 152 1.0
175 153 1.0
179 153 -1.0
187 153 -1.0
467 153 1.0
176 154 1.0
180 154 -1.0
188 154 -1.0
468 154 1.0
191 155 -1.0
193 155 -1.0
189 156 1.0
190 156 1.0
192 156 1.0
207 156 2.54515263975353
209 156 -2.54515263975353
211 156 1.26558121681553
213 156 -1.26558121681553
278 156 -1.0
315 156 -1.0
316 156 1.0
325 156 1.0
337 156 -1.0
509 156 1.0
510 156 -1.0
189 157 1.0
192 157 1.0
203 157 -1.0
207 157 -1.0
435 157 1.0
193 158 -1.0
205 158 -1.0
211 158 -1.0
469 158 1.0
196 159 -1.0
198 159 -1.0
194 160 1.0
195 160 1.0
197 160 1.0
208 160 2.54515263975353
210 160 -2.54515263975353
212 160 1.26558121681553
214 160 -1.26558121681553
278 160 1.0
316 160 -1.0
326 160 1.0
338 160 -1.0
511 160 1.0
512 160 -1.0
194 161 1.0
197 161 1.0
204 161 -1.0
208 161 -1.0
436 161 1.0
198 162 -1.0
206 162 -1.0
212 162 -1.0
470 162 1.0
199 163 1.0
203 163 -1.0
209 163 -1.0
439 163 1.0
200 164 1.0
204 164 -1.0
210 164 -1.0
440 164 1.0
201 165 1.0
205 165 -1.0
213 165 -1.0
471 165 1.0
202 166 1.0
206 166 -1.0
214 166 -1.0
472 166 1.0
215 167 -0.9
221 167 -1.0
225 167 -1.0
453 167 1.0
215 168 1.0
223 168 -1.0
229 168 -1.0
473 168 1.0
216 169 -0.9
222 169 -1.0
226 169 -1.0
454 169 1.0
216 170 1.0
224 170 -1.0
230 170 -1.0
474 170 1.0
217 171 1.0
221 171 -1.0
227 171 -1.0
455 171 1.0
218 172 1.0
222 172 -1.0
228 172 -1.0
456 172 1.0
219 173 1.0
223 173 -1.0
231 173 -1.0
475 173 1.0
220 174 1.0
224 174 -1.0
232 174 -1.0
476 174 1.0
225 175 15.0
227 175 -15.0
229 175 13.5
231 175 -13.5
279 175 -1.0
317 175 -1.0
318 175 1.0
339 175 -1.0
513 175 1.0
514 175 -1.0
226 176 15.0
228 176 -15.0
230 176 13.5
232 176 -13.5
279 176 1.0
318 176 -1.0
340 176 -1.0
515 176 1.0
516 176 -1.0
233 177 -0.6
239 177 -1.0
243 177 -1.0
457 177 1.0
233 178 1.0
241 178 -1.0
247 178 -1.0
477 178 1.0
234 179 -0.6
240 179 -1.0
244 179 -1.0
458 179 1.0
234 180 1.0
242 180 -1.0
248 180 -1.0
478 180 1.0
235 181 1.0
239 181 -1.0
245 181 -1.0
459 181 1.0
236 182 1.0
240 182 -1.0
246 182 -1.0
460 182 1.0
237 183 1.0
241 183 -1.0
249 183 -1.0
479 183 1.0
238 184 1.0
242 184 -1.0
250 184 -1.0
480 184 1.0
243 185 15.0
245 185 -15.0
247 185 9.0
249 185 -9.0
280 185 -1.0
319 185 -1.0
320 185 1.0
341 185 -1.0
517 185 1.0
518 185 -1.0
244 186 15.0
246 186 -15.0
248 186 9.0
250 186 -9.0
280 186 1.0
320 186 -1.0
342 186 -1.0
519 186 1.0
520 186 -1.0
251 187 1.0
252 188 1.0
253 189 1.0
254 190 1.0
255 191 1.0
256 192 1.0
257 193 1.0
258 194 1.0
259 195 1.0
260 196 1.0
261 197 1.0
262 198 1.0
263 199 1.0
264 200 1.0
265 201 1.0
266 202 1.0
267 203 1.0
268 204 1.0
269 205 1.0
270 206 1.0

BCOORD
108
33 40.0
34 40.0
37 3.71357206670431
38 3.71357206670431
59 40.0
60 40.0
63 4.45628648004517
64 4.45628648004517
77 4.45628648004517
78 4.45628648004517
81 3.34221486003388
82 3.34221486003388
103 4.45628648004517
104 4.45628648004517
107 2.54515263975353
108 2.54515263975353
127 4.45628648004517
128 4.45628648004517
131 30.0
132 30.0
135 15.0
136 15.0
157 3.34221486003388
158 3.34221486003388
161 1.83548069293539
162 1.83548069293539
183 3.34221486003388
184 3.34221486003388
187 1.32154609891348
188 1.32154609891348
209 2.54515263975353
210 2.54515263975353
213 1.26558121681553
214 1.26558121681553
227 15.0
228 15.0
231 13.5
232 13.5
245 15.0
246 15.0
249 9.0
250 9.0
281 1.0
282 1.0
283 1.0
284 1.0
285 1.0
286 1.0
287 1.0
288 1.0
289 1.0
290 1.0
291 1.0
292 1.0
293 1.0
294 1.0
295 1.0
296 1.0
297 1.0
298 1.0
299 1.0
300 1.0
321 -1.0
322 -1.0
344 40.0
346 40.0
368 30.0
370 30.0
482 1.0
484 1.0
486 1.0
488 1.0
490 1.0
492 1.0
494 1.0
496 1.0
498 1.0
500 1.0
502 1.0
504 1.0
506 1.0
508 1.0
510 1.0
512 1.0
514 1.0
516 1.0
518 1.0
520 1.0
522 1.0
524 1.0
526 1.0
528 1.0
530 1.0
532 1.0
534 1.0
536 1.0
538 1.0
540 1.0
542 1.0
544 1.0
546 1.0
548 1.0
550 1.0
552 1.0
554 1.0
556 1.0
558 1.0
560 1.0
